memory 4 GB
set basis def2-TZVPD
molecule{
	3 1
	La 4.400691 -0.592587 3.859824
	--
	-1 1
	H 0.654360 -0.756002 -0.566557
	H 0.654359 1.000612 -0.273127
	C 1.030203 0.037836 0.085833
	C 2.549025 0.039970 0.073062
	O 3.097446 -0.147379 1.194614
	O 3.069332 0.229547 -1.061833
	H 0.641411 -0.130686 1.094682
}

energy('MP2/def2-[TQ]ZVPD')
