memory 4 GB
set basis def2-TZVPD
molecule{
	3 1
	La 4.751729 3.326427 1.340614
	--
	0 1
	O 3.174952 0.936381 0.445374
	N 3.145299 -1.177849 -0.346553
	H 0.678671 -0.890870 0.716461
	H 0.678670 -0.263128 -0.959444
	H 2.641351 -1.997280 -0.653486
	C 1.031544 -0.090152 0.060866
	H 0.628268 0.861825 0.417447
	H 4.156883 -1.192827 -0.352163
	C 2.531590 -0.038814 0.080095
}

energy('MP2/def2-[TQ]ZVPD')
